p cnf 1007
-18 -312
-19 -315
-20 -318
-21 -321
-22 -324
-23 -327
-24 -330
-25 -333
-26 -336
-27 -339
-28 -342
-29 -345
-30 -348
-31 -351
-32 -354
-33 -357
-34 -360
-35 361
-36 362
-37 363
-38 364
-39 365
-40 -19
-40 -20
19 20 40
-41 -21
-41 -22
21 22 41
-42 -23
-42 -24
23 24 42
-43 -25
-43 -26
25 26 43
-44 -27
-44 -28
27 28 44
-45 -29
-45 -30
29 30 45
-46 -31
-46 -32
31 32 46
-47 -33
-47 -34
33 34 47
-48 -35
-48 -36
35 36 48
-49 -37
-49 -38
37 38 49
-50 40
-50 41
-40 -41 50
-51 42
-51 43
-42 -43 51
-52 44
-52 45
-44 -45 52
-53 46
-53 47
-46 -47 53
-54 48
-54 49
-48 -49 54
-55 50
-55 51
-50 -51 55
-56 52
-56 53
-52 -53 56
-57 -39
-57 54
39 -54 57
-58 55
-58 56
-55 -56 58
-59 57
-59 58
-57 -58 59
-60 -18
-60 19
18 -19 60
-61 18
-61 -19
-18 19 61
-62 -60
-62 -61
60 61 62
-63 18
-63 19
-18 -19 63
-64 -18
-64 -62
18 62 64
-65 18
-65 62
-18 -62 65
-66 -64
-66 -65
64 65 66
-67 18
-67 -62
-18 62 67
-68 -63
-68 -67
63 67 68
-69 -19
-69 20
19 -20 69
-70 19
-70 -20
-19 20 70
-71 -69
-71 -70
69 70 71
-72 19
-72 20
-19 -20 72
-73 68
-73 -71
-68 71 73
-74 -68
-74 71
68 -71 74
-75 -73
-75 -74
73 74 75
-76 -68
-76 -71
68 71 76
-77 -72
-77 -76
72 76 77
-78 -20
-78 21
20 -21 78
-79 20
-79 -21
-20 21 79
-80 -78
-80 -79
78 79 80
-81 20
-81 21
-20 -21 81
-82 77
-82 -80
-77 80 82
-83 -77
-83 80
77 -80 83
-84 -82
-84 -83
82 83 84
-85 -77
-85 -80
77 80 85
-86 -81
-86 -85
81 85 86
-87 -21
-87 22
21 -22 87
-88 21
-88 -22
-21 22 88
-89 -87
-89 -88
87 88 89
-90 21
-90 22
-21 -22 90
-91 86
-91 -89
-86 89 91
-92 -86
-92 89
86 -89 92
-93 -91
-93 -92
91 92 93
-94 -86
-94 -89
86 89 94
-95 -90
-95 -94
90 94 95
-96 -22
-96 23
22 -23 96
-97 22
-97 -23
-22 23 97
-98 -96
-98 -97
96 97 98
-99 22
-99 23
-22 -23 99
-100 95
-100 -98
-95 98 100
-101 -95
-101 98
95 -98 101
-102 -100
-102 -101
100 101 102
-103 -95
-103 -98
95 98 103
-104 -99
-104 -103
99 103 104
-105 -23
-105 24
23 -24 105
-106 23
-106 -24
-23 24 106
-107 -105
-107 -106
105 106 107
-108 23
-108 24
-23 -24 108
-109 104
-109 -107
-104 107 109
-110 -104
-110 107
104 -107 110
-111 -109
-111 -110
109 110 111
-112 -104
-112 -107
104 107 112
-113 -108
-113 -112
108 112 113
-114 -24
-114 25
24 -25 114
-115 24
-115 -25
-24 25 115
-116 -114
-116 -115
114 115 116
-117 24
-117 25
-24 -25 117
-118 113
-118 -116
-113 116 118
-119 -113
-119 116
113 -116 119
-120 -118
-120 -119
118 119 120
-121 -113
-121 -116
113 116 121
-122 -117
-122 -121
117 121 122
-123 -25
-123 26
25 -26 123
-124 25
-124 -26
-25 26 124
-125 -123
-125 -124
123 124 125
-126 25
-126 26
-25 -26 126
-127 122
-127 -125
-122 125 127
-128 -122
-128 125
122 -125 128
-129 -127
-129 -128
127 128 129
-130 -122
-130 -125
122 125 130
-131 -126
-131 -130
126 130 131
-132 -26
-132 27
26 -27 132
-133 26
-133 -27
-26 27 133
-134 -132
-134 -133
132 133 134
-135 26
-135 27
-26 -27 135
-136 131
-136 -134
-131 134 136
-137 -131
-137 134
131 -134 137
-138 -136
-138 -137
136 137 138
-139 -131
-139 -134
131 134 139
-140 -135
-140 -139
135 139 140
-141 -27
-141 28
27 -28 141
-142 27
-142 -28
-27 28 142
-143 -141
-143 -142
141 142 143
-144 27
-144 28
-27 -28 144
-145 140
-145 -143
-140 143 145
-146 -140
-146 143
140 -143 146
-147 -145
-147 -146
145 146 147
-148 -140
-148 -143
140 143 148
-149 -144
-149 -148
144 148 149
-150 -28
-150 29
28 -29 150
-151 28
-151 -29
-28 29 151
-152 -150
-152 -151
150 151 152
-153 28
-153 29
-28 -29 153
-154 149
-154 -152
-149 152 154
-155 -149
-155 152
149 -152 155
-156 -154
-156 -155
154 155 156
-157 -149
-157 -152
149 152 157
-158 -153
-158 -157
153 157 158
-159 -29
-159 30
29 -30 159
-160 29
-160 -30
-29 30 160
-161 -159
-161 -160
159 160 161
-162 29
-162 30
-29 -30 162
-163 158
-163 -161
-158 161 163
-164 -158
-164 161
158 -161 164
-165 -163
-165 -164
163 164 165
-166 -158
-166 -161
158 161 166
-167 -162
-167 -166
162 166 167
-168 -30
-168 31
30 -31 168
-169 30
-169 -31
-30 31 169
-170 -168
-170 -169
168 169 170
-171 30
-171 31
-30 -31 171
-172 167
-172 -170
-167 170 172
-173 -167
-173 170
167 -170 173
-174 -172
-174 -173
172 173 174
-175 -167
-175 -170
167 170 175
-176 -171
-176 -175
171 175 176
-177 -31
-177 32
31 -32 177
-178 31
-178 -32
-31 32 178
-179 -177
-179 -178
177 178 179
-180 31
-180 32
-31 -32 180
-181 176
-181 -179
-176 179 181
-182 -176
-182 179
176 -179 182
-183 -181
-183 -182
181 182 183
-184 -176
-184 -179
176 179 184
-185 -180
-185 -184
180 184 185
-186 -32
-186 33
32 -33 186
-187 32
-187 -33
-32 33 187
-188 -186
-188 -187
186 187 188
-189 32
-189 33
-32 -33 189
-190 185
-190 -188
-185 188 190
-191 -185
-191 188
185 -188 191
-192 -190
-192 -191
190 191 192
-193 -185
-193 -188
185 188 193
-194 -189
-194 -193
189 193 194
-195 -33
-195 34
33 -34 195
-196 33
-196 -34
-33 34 196
-197 -195
-197 -196
195 196 197
-198 33
-198 34
-33 -34 198
-199 194
-199 -197
-194 197 199
-200 -194
-200 197
194 -197 200
-201 -199
-201 -200
199 200 201
-202 -194
-202 -197
194 197 202
-203 -198
-203 -202
198 202 203
-204 -34
-204 35
34 -35 204
-205 34
-205 -35
-34 35 205
-206 -204
-206 -205
204 205 206
-207 34
-207 35
-34 -35 207
-208 203
-208 -206
-203 206 208
-209 -203
-209 206
203 -206 209
-210 -208
-210 -209
208 209 210
-211 -203
-211 -206
203 206 211
-212 -207
-212 -211
207 211 212
-213 -35
-213 36
35 -36 213
-214 35
-214 -36
-35 36 214
-215 -213
-215 -214
213 214 215
-216 35
-216 36
-35 -36 216
-217 212
-217 -215
-212 215 217
-218 -212
-218 215
212 -215 218
-219 -217
-219 -218
217 218 219
-220 -212
-220 -215
212 215 220
-221 -216
-221 -220
216 220 221
-222 -36
-222 37
36 -37 222
-223 36
-223 -37
-36 37 223
-224 -222
-224 -223
222 223 224
-225 36
-225 37
-36 -37 225
-226 221
-226 -224
-221 224 226
-227 -221
-227 224
221 -224 227
-228 -226
-228 -227
226 227 228
-229 -221
-229 -224
221 224 229
-230 -225
-230 -229
225 229 230
-231 -37
-231 38
37 -38 231
-232 37
-232 -38
-37 38 232
-233 -231
-233 -232
231 232 233
-234 37
-234 38
-37 -38 234
-235 230
-235 -233
-230 233 235
-236 -230
-236 233
230 -233 236
-237 -235
-237 -236
235 236 237
-238 -230
-238 -233
230 233 238
-239 -234
-239 -238
234 238 239
-240 -38
-240 39
38 -39 240
-241 38
-241 -39
-38 39 241
-242 -240
-242 -241
240 241 242
-243 38
-243 39
-38 -39 243
-244 239
-244 -242
-239 242 244
-245 -239
-245 242
239 -242 245
-246 -244
-246 -245
244 245 246
-247 -239
-247 -242
239 242 247
-248 -243
-248 -247
243 247 248
-249 18
-249 -66
-18 66 249
-250 -18
-250 20
18 -20 250
-251 -249
-251 -250
249 250 251
-252 18
-252 -75
-18 75 252
-253 -18
-253 21
18 -21 253
-254 -252
-254 -253
252 253 254
-255 18
-255 -84
-18 84 255
-256 -18
-256 22
18 -22 256
-257 -255
-257 -256
255 256 257
-258 18
-258 -93
-18 93 258
-259 -18
-259 23
18 -23 259
-260 -258
-260 -259
258 259 260
-261 18
-261 -102
-18 102 261
-262 -18
-262 24
18 -24 262
-263 -261
-263 -262
261 262 263
-264 18
-264 -111
-18 111 264
-265 -18
-265 25
18 -25 265
-266 -264
-266 -265
264 265 266
-267 18
-267 -120
-18 120 267
-268 -18
-268 26
18 -26 268
-269 -267
-269 -268
267 268 269
-270 18
-270 -129
-18 129 270
-271 -18
-271 27
18 -27 271
-272 -270
-272 -271
270 271 272
-273 18
-273 -138
-18 138 273
-274 -18
-274 28
18 -28 274
-275 -273
-275 -274
273 274 275
-276 18
-276 -147
-18 147 276
-277 -18
-277 29
18 -29 277
-278 -276
-278 -277
276 277 278
-279 18
-279 -156
-18 156 279
-280 -18
-280 30
18 -30 280
-281 -279
-281 -280
279 280 281
-282 18
-282 -165
-18 165 282
-283 -18
-283 31
18 -31 283
-284 -282
-284 -283
282 283 284
-285 18
-285 -174
-18 174 285
-286 -18
-286 32
18 -32 286
-287 -285
-287 -286
285 286 287
-288 18
-288 -183
-18 183 288
-289 -18
-289 33
18 -33 289
-290 -288
-290 -289
288 289 290
-291 18
-291 -192
-18 192 291
-292 -18
-292 34
18 -34 292
-293 -291
-293 -292
291 292 293
-294 18
-294 -201
-18 201 294
-295 -18
-295 35
18 -35 295
-296 -294
-296 -295
294 295 296
-297 18
-297 -210
-18 210 297
-298 -18
-298 36
18 -36 298
-299 -297
-299 -298
297 298 299
-300 18
-300 -219
-18 219 300
-301 -18
-301 37
18 -37 301
-302 -300
-302 -301
300 301 302
-303 18
-303 -228
-18 228 303
-304 -18
-304 38
18 -38 304
-305 -303
-305 -304
303 304 305
-306 18
-306 -237
-18 237 306
-307 -18
-307 39
18 -39 307
-308 -306
-308 -307
306 307 308
-309 18
-309 -246
-18 246 309
-310 1
-310 59
-1 -59 310
-311 -59
-311 60
59 -60 311
-312 -310
-312 -311
310 311 312
-313 2
-313 59
-2 -59 313
-314 -59
-314 -251
59 251 314
-315 -313
-315 -314
313 314 315
-316 3
-316 59
-3 -59 316
-317 -59
-317 -254
59 254 317
-318 -316
-318 -317
316 317 318
-319 4
-319 59
-4 -59 319
-320 -59
-320 -257
59 257 320
-321 -319
-321 -320
319 320 321
-322 5
-322 59
-5 -59 322
-323 -59
-323 -260
59 260 323
-324 -322
-324 -323
322 323 324
-325 6
-325 59
-6 -59 325
-326 -59
-326 -263
59 263 326
-327 -325
-327 -326
325 326 327
-328 7
-328 59
-7 -59 328
-329 -59
-329 -266
59 266 329
-330 -328
-330 -329
328 329 330
-331 8
-331 59
-8 -59 331
-332 -59
-332 -269
59 269 332
-333 -331
-333 -332
331 332 333
-334 9
-334 59
-9 -59 334
-335 -59
-335 -272
59 272 335
-336 -334
-336 -335
334 335 336
-337 10
-337 59
-10 -59 337
-338 -59
-338 -275
59 275 338
-339 -337
-339 -338
337 338 339
-340 11
-340 59
-11 -59 340
-341 -59
-341 -278
59 278 341
-342 -340
-342 -341
340 341 342
-343 12
-343 59
-12 -59 343
-344 -59
-344 -281
59 281 344
-345 -343
-345 -344
343 344 345
-346 13
-346 59
-13 -59 346
-347 -59
-347 -284
59 284 347
-348 -346
-348 -347
346 347 348
-349 14
-349 59
-14 -59 349
-350 -59
-350 -287
59 287 350
-351 -349
-351 -350
349 350 351
-352 15
-352 59
-15 -59 352
-353 -59
-353 -290
59 290 353
-354 -352
-354 -353
352 353 354
-355 16
-355 59
-16 -59 355
-356 -59
-356 -293
59 293 356
-357 -355
-357 -356
355 356 357
-358 17
-358 59
-17 -59 358
-359 -59
-359 -296
59 296 359
-360 -358
-360 -359
358 359 360
-361 -59
-361 -299
59 299 361
-362 -59
-362 -302
59 302 362
-363 -59
-363 -305
59 305 363
-364 -59
-364 -308
59 308 364
-365 -59
-365 309
59 -309 365
-366 -39
-366 248
39 -248 366
-367 18
-367 -366
-18 366 367
367
